SYSTEM = NdNiO3-pdd
ISMEAR =  2
ENCUT=500
SIGMA =  0.005
EDIFF = 1E-8
LWAVE = .FALSE.
NCSHMEM=1 

ALGO = CRPA
NBANDS =384
VCUTOFF=800

PRECFOCK = Fast           # fast mode for FFTs
NTARGET_STATES = 1    # exclude wannier state 1 in screening
LWRITE_WANPROJ = .TRUE.   # write wannier projection file
