SYSTEM = NdNiO2-pdd
ISMEAR =  2
SIGMA =  0.005
EDIFF = 1E-8
ALGO = Exact ; NELM=1
LOPTICS = .TRUE.
LWAVE = .TRUE.
ENCUT=500
NBANDS =384
NCORE=16
LMAXMIX=6
LORBIT=11

