SYSTEM = NdNiO3-pdd
ISMEAR =  2
SIGMA =  0.005
EDIFF = 1E-8
NCORE=16
ENCUT=500
LMAXMIX=6
LORBIT=11
