SYSTEM = SVO
ISMEAR =  0
SIGMA =  0.01
EDIFF = 1E-10
ALGO = Exact ; NELM=1
LOPTICS = .TRUE.
LWAVE = .TRUE.
ENCUT=450
NBANDS =512
LMAXMIX=6
LORBIT=11

