SYSTEM = SVO

ICHARG=1
ISTART = 0

ISMEAR =  2
SIGMA =  0.01
EDIFF = 1E-10
ALGO = Exact ; NELM=1
LOPTICS = TRUE
LWAVE = .TRUE.
ENCUT=450
NBANDS =128
LMAXMIX=6
LORBIT=11

