SYSTEM = SVO
ISMEAR =  2
SIGMA =  0.01
EDIFF = 1E-10
ENCUT=450
LMAXMIX=6
LORBIT=11
NCORE=4
NBANDS=32
LWAVE = False
LCHARG = True
NELMIN=10
