&BANDS
   prefix  = 'svo_crpa',
   outdir  = 'tmp/',
   filband = 'svo_bands.dat'
/
