
dis_win_min = -2.28537
dis_win_max =  7.91463
dis_froz_min = 3.61463
dis_froz_max = 7.86463


 iprint                = 1
 num_iter              = 200000
 num_print_cycles      = 100
 conv_window           = 50
 conv_tol              = 1e-10
 dis_num_iter          = 100000
!dis_conv_window       = 3
dis_conv_tol          = 1e-14

guiding_centres = T
begin projections
Fe:l=2,mr=1,2,3,4,5
O:l=1
end projections

!!! BZ-Path for band structure !!!
bands_plot = T
bands_num_points  = 50
bands_plot_format = gnuplot xmgrace
begin kpoint_path
  G   0.0000000000     0.0000000000     0.0000000000  X  0.0000000000     0.0000000000     0.5000000000
  X   0.0000000000     0.0000000000     0.5000000000  M  0.2500000000     0.2500000000     0.2500000000
  P   0.2500000000     0.2500000000     0.2500000000  N  0.0000000000     0.5000000000     0.0000000000
  N   0.0000000000     0.5000000000     0.0000000000  G  0.0000000000     0.0000000000     0.0000000000
  G   0.0000000000     0.0000000000     0.0000000000  M  0.5000000000     0.5000000000    -0.5000000000
  M   0.5000000000     0.5000000000    -0.5000000000  S  0.2742391480     0.7257608520    -0.2742391480
end kpoint_path

write_hr= true
wannier_plot = false

# This part was generated automatically by VASP
num_bands = 48
num_wann = 17
begin unit_cell_cart
    -1.9547442     1.9547456     6.2777153
     1.9547451    -1.9547447     6.2777153
     1.9547451     1.9547447    -6.2777153
end unit_cell_cart
begin atoms_cart
Sr       0.0000006     0.0000006     8.0710076
Sr       0.0000003     0.0000003     4.4844230
Fe       0.0000000     0.0000000     0.0000000
O        0.0000008     0.0000008    10.5719233
O        0.0000001     0.0000001     1.9835072
O        0.0000004     1.9547451     0.0000000
O        1.9547451     0.0000000     0.0000000
end atoms_cart
mp_grid =    15    15    15
begin kpoints
      0.000000000000      0.000000000000      0.000000000000
      0.066666666667      0.000000000000      0.000000000000
      0.133333333333      0.000000000000      0.000000000000
      0.200000000000      0.000000000000      0.000000000000
      0.266666666667      0.000000000000      0.000000000000
      0.333333333333      0.000000000000      0.000000000000
      0.400000000000      0.000000000000      0.000000000000
      0.466666666667      0.000000000000      0.000000000000
      0.066666666667      0.066666666667      0.000000000000
      0.133333333333      0.066666666667      0.000000000000
      0.200000000000      0.066666666667      0.000000000000
      0.266666666667      0.066666666667      0.000000000000
      0.333333333333      0.066666666667      0.000000000000
      0.400000000000      0.066666666667      0.000000000000
      0.466666666667      0.066666666667      0.000000000000
     -0.466666666667      0.066666666667      0.000000000000
     -0.400000000000      0.066666666667      0.000000000000
     -0.333333333333      0.066666666667      0.000000000000
     -0.266666666667      0.066666666667      0.000000000000
     -0.200000000000      0.066666666667      0.000000000000
     -0.133333333333      0.066666666667      0.000000000000
     -0.066666666667      0.066666666667      0.000000000000
      0.133333333333      0.133333333333      0.000000000000
      0.200000000000      0.133333333333      0.000000000000
      0.266666666667      0.133333333333      0.000000000000
      0.333333333333      0.133333333333      0.000000000000
      0.400000000000      0.133333333333      0.000000000000
      0.466666666667      0.133333333333      0.000000000000
     -0.466666666667      0.133333333333      0.000000000000
     -0.400000000000      0.133333333333      0.000000000000
     -0.333333333333      0.133333333333      0.000000000000
     -0.266666666667      0.133333333333      0.000000000000
     -0.200000000000      0.133333333333      0.000000000000
     -0.133333333333      0.133333333333      0.000000000000
      0.200000000000      0.200000000000      0.000000000000
      0.266666666667      0.200000000000      0.000000000000
      0.333333333333      0.200000000000      0.000000000000
      0.400000000000      0.200000000000      0.000000000000
      0.466666666667      0.200000000000      0.000000000000
     -0.466666666667      0.200000000000      0.000000000000
     -0.400000000000      0.200000000000      0.000000000000
     -0.333333333333      0.200000000000      0.000000000000
     -0.266666666667      0.200000000000      0.000000000000
     -0.200000000000      0.200000000000      0.000000000000
      0.266666666667      0.266666666667      0.000000000000
      0.333333333333      0.266666666667      0.000000000000
      0.400000000000      0.266666666667      0.000000000000
      0.466666666667      0.266666666667      0.000000000000
     -0.466666666667      0.266666666667      0.000000000000
     -0.400000000000      0.266666666667      0.000000000000
     -0.333333333333      0.266666666667      0.000000000000
     -0.266666666667      0.266666666667      0.000000000000
      0.333333333333      0.333333333333      0.000000000000
      0.400000000000      0.333333333333      0.000000000000
      0.466666666667      0.333333333333      0.000000000000
     -0.466666666667      0.333333333333      0.000000000000
     -0.400000000000      0.333333333333      0.000000000000
     -0.333333333333      0.333333333333      0.000000000000
      0.400000000000      0.400000000000      0.000000000000
      0.466666666667      0.400000000000      0.000000000000
     -0.466666666667      0.400000000000      0.000000000000
     -0.400000000000      0.400000000000      0.000000000000
      0.466666666667      0.466666666667      0.000000000000
     -0.466666666667      0.466666666667      0.000000000000
      0.066666666667      0.066666666667      0.066666666667
      0.133333333333      0.066666666667      0.066666666667
      0.200000000000      0.066666666667      0.066666666667
      0.266666666667      0.066666666667      0.066666666667
      0.333333333333      0.066666666667      0.066666666667
      0.400000000000      0.066666666667      0.066666666667
     -0.066666666667      0.066666666667      0.066666666667
      0.133333333333      0.133333333333      0.066666666667
      0.200000000000      0.133333333333      0.066666666667
      0.266666666667      0.133333333333      0.066666666667
      0.333333333333      0.133333333333      0.066666666667
      0.400000000000      0.133333333333      0.066666666667
      0.466666666667      0.133333333333      0.066666666667
     -0.466666666667      0.133333333333      0.066666666667
     -0.400000000000      0.133333333333      0.066666666667
     -0.333333333333      0.133333333333      0.066666666667
     -0.266666666667      0.133333333333      0.066666666667
     -0.133333333333      0.133333333333      0.066666666667
     -0.066666666667      0.133333333333      0.066666666667
      0.200000000000      0.200000000000      0.066666666667
      0.266666666667      0.200000000000      0.066666666667
      0.333333333333      0.200000000000      0.066666666667
      0.400000000000      0.200000000000      0.066666666667
      0.466666666667      0.200000000000      0.066666666667
     -0.466666666667      0.200000000000      0.066666666667
     -0.400000000000      0.200000000000      0.066666666667
     -0.333333333333      0.200000000000      0.066666666667
     -0.200000000000      0.200000000000      0.066666666667
     -0.133333333333      0.200000000000      0.066666666667
     -0.066666666667      0.200000000000      0.066666666667
      0.266666666667      0.266666666667      0.066666666667
      0.333333333333      0.266666666667      0.066666666667
      0.400000000000      0.266666666667      0.066666666667
      0.466666666667      0.266666666667      0.066666666667
     -0.466666666667      0.266666666667      0.066666666667
     -0.400000000000      0.266666666667      0.066666666667
     -0.266666666667      0.266666666667      0.066666666667
     -0.200000000000      0.266666666667      0.066666666667
     -0.133333333333      0.266666666667      0.066666666667
     -0.066666666667      0.266666666667      0.066666666667
      0.333333333333      0.333333333333      0.066666666667
      0.400000000000      0.333333333333      0.066666666667
      0.466666666667      0.333333333333      0.066666666667
     -0.466666666667      0.333333333333      0.066666666667
     -0.333333333333      0.333333333333      0.066666666667
     -0.266666666667      0.333333333333      0.066666666667
     -0.200000000000      0.333333333333      0.066666666667
     -0.133333333333      0.333333333333      0.066666666667
     -0.066666666667      0.333333333333      0.066666666667
      0.400000000000      0.400000000000      0.066666666667
      0.466666666667      0.400000000000      0.066666666667
     -0.400000000000      0.400000000000      0.066666666667
     -0.333333333333      0.400000000000      0.066666666667
     -0.266666666667      0.400000000000      0.066666666667
     -0.200000000000      0.400000000000      0.066666666667
     -0.133333333333      0.400000000000      0.066666666667
     -0.066666666667      0.400000000000      0.066666666667
     -0.466666666667      0.466666666667      0.066666666667
     -0.400000000000      0.466666666667      0.066666666667
     -0.333333333333      0.466666666667      0.066666666667
     -0.266666666667      0.466666666667      0.066666666667
     -0.200000000000      0.466666666667      0.066666666667
     -0.133333333333      0.466666666667      0.066666666667
     -0.066666666667      0.466666666667      0.066666666667
     -0.466666666667     -0.466666666667      0.066666666667
     -0.400000000000     -0.466666666667      0.066666666667
     -0.333333333333     -0.466666666667      0.066666666667
     -0.266666666667     -0.466666666667      0.066666666667
     -0.200000000000     -0.466666666667      0.066666666667
     -0.133333333333     -0.466666666667      0.066666666667
     -0.066666666667     -0.466666666667      0.066666666667
     -0.400000000000     -0.400000000000      0.066666666667
     -0.333333333333     -0.400000000000      0.066666666667
     -0.266666666667     -0.400000000000      0.066666666667
     -0.200000000000     -0.400000000000      0.066666666667
     -0.133333333333     -0.400000000000      0.066666666667
     -0.066666666667     -0.400000000000      0.066666666667
     -0.333333333333     -0.333333333333      0.066666666667
     -0.266666666667     -0.333333333333      0.066666666667
     -0.200000000000     -0.333333333333      0.066666666667
     -0.133333333333     -0.333333333333      0.066666666667
     -0.066666666667     -0.333333333333      0.066666666667
     -0.266666666667     -0.266666666667      0.066666666667
     -0.200000000000     -0.266666666667      0.066666666667
     -0.133333333333     -0.266666666667      0.066666666667
     -0.066666666667     -0.266666666667      0.066666666667
     -0.200000000000     -0.200000000000      0.066666666667
     -0.133333333333     -0.200000000000      0.066666666667
     -0.066666666667     -0.200000000000      0.066666666667
     -0.133333333333     -0.133333333333      0.066666666667
     -0.066666666667     -0.133333333333      0.066666666667
     -0.066666666667     -0.066666666667      0.066666666667
      0.133333333333      0.133333333333      0.133333333333
      0.200000000000      0.133333333333      0.133333333333
      0.266666666667      0.133333333333      0.133333333333
      0.333333333333      0.133333333333      0.133333333333
     -0.133333333333      0.133333333333      0.133333333333
      0.200000000000      0.200000000000      0.133333333333
      0.266666666667      0.200000000000      0.133333333333
      0.333333333333      0.200000000000      0.133333333333
      0.400000000000      0.200000000000      0.133333333333
      0.466666666667      0.200000000000      0.133333333333
     -0.466666666667      0.200000000000      0.133333333333
     -0.200000000000      0.200000000000      0.133333333333
     -0.133333333333      0.200000000000      0.133333333333
      0.266666666667      0.266666666667      0.133333333333
      0.333333333333      0.266666666667      0.133333333333
      0.400000000000      0.266666666667      0.133333333333
      0.466666666667      0.266666666667      0.133333333333
     -0.266666666667      0.266666666667      0.133333333333
     -0.200000000000      0.266666666667      0.133333333333
     -0.133333333333      0.266666666667      0.133333333333
      0.333333333333      0.333333333333      0.133333333333
      0.400000000000      0.333333333333      0.133333333333
     -0.333333333333      0.333333333333      0.133333333333
     -0.266666666667      0.333333333333      0.133333333333
     -0.200000000000      0.333333333333      0.133333333333
     -0.133333333333      0.333333333333      0.133333333333
     -0.400000000000      0.400000000000      0.133333333333
     -0.333333333333      0.400000000000      0.133333333333
     -0.266666666667      0.400000000000      0.133333333333
     -0.200000000000      0.400000000000      0.133333333333
     -0.133333333333      0.400000000000      0.133333333333
     -0.466666666667      0.466666666667      0.133333333333
     -0.400000000000      0.466666666667      0.133333333333
     -0.333333333333      0.466666666667      0.133333333333
     -0.266666666667      0.466666666667      0.133333333333
     -0.200000000000      0.466666666667      0.133333333333
     -0.133333333333      0.466666666667      0.133333333333
     -0.466666666667     -0.466666666667      0.133333333333
     -0.400000000000     -0.466666666667      0.133333333333
     -0.333333333333     -0.466666666667      0.133333333333
     -0.266666666667     -0.466666666667      0.133333333333
     -0.200000000000     -0.466666666667      0.133333333333
     -0.133333333333     -0.466666666667      0.133333333333
     -0.400000000000     -0.400000000000      0.133333333333
     -0.333333333333     -0.400000000000      0.133333333333
     -0.266666666667     -0.400000000000      0.133333333333
     -0.200000000000     -0.400000000000      0.133333333333
     -0.133333333333     -0.400000000000      0.133333333333
     -0.333333333333     -0.333333333333      0.133333333333
     -0.266666666667     -0.333333333333      0.133333333333
     -0.200000000000     -0.333333333333      0.133333333333
     -0.133333333333     -0.333333333333      0.133333333333
     -0.266666666667     -0.266666666667      0.133333333333
     -0.200000000000     -0.266666666667      0.133333333333
     -0.133333333333     -0.266666666667      0.133333333333
     -0.200000000000     -0.200000000000      0.133333333333
     -0.133333333333     -0.200000000000      0.133333333333
     -0.133333333333     -0.133333333333      0.133333333333
      0.200000000000      0.200000000000      0.200000000000
      0.266666666667      0.200000000000      0.200000000000
     -0.200000000000      0.200000000000      0.200000000000
      0.266666666667      0.266666666667      0.200000000000
      0.333333333333      0.266666666667      0.200000000000
     -0.266666666667      0.266666666667      0.200000000000
     -0.200000000000      0.266666666667      0.200000000000
     -0.333333333333      0.333333333333      0.200000000000
     -0.266666666667      0.333333333333      0.200000000000
     -0.200000000000      0.333333333333      0.200000000000
     -0.400000000000      0.400000000000      0.200000000000
     -0.333333333333      0.400000000000      0.200000000000
     -0.266666666667      0.400000000000      0.200000000000
     -0.200000000000      0.400000000000      0.200000000000
     -0.466666666667      0.466666666667      0.200000000000
     -0.400000000000      0.466666666667      0.200000000000
     -0.333333333333      0.466666666667      0.200000000000
     -0.266666666667      0.466666666667      0.200000000000
     -0.200000000000      0.466666666667      0.200000000000
     -0.466666666667     -0.466666666667      0.200000000000
     -0.400000000000     -0.466666666667      0.200000000000
     -0.333333333333     -0.466666666667      0.200000000000
     -0.266666666667     -0.466666666667      0.200000000000
     -0.200000000000     -0.466666666667      0.200000000000
     -0.400000000000     -0.400000000000      0.200000000000
     -0.333333333333     -0.400000000000      0.200000000000
     -0.266666666667     -0.400000000000      0.200000000000
     -0.200000000000     -0.400000000000      0.200000000000
     -0.333333333333     -0.333333333333      0.200000000000
     -0.266666666667     -0.333333333333      0.200000000000
     -0.200000000000     -0.333333333333      0.200000000000
     -0.266666666667     -0.266666666667      0.200000000000
     -0.200000000000     -0.266666666667      0.200000000000
     -0.200000000000     -0.200000000000      0.200000000000
     -0.266666666667      0.266666666667      0.266666666667
     -0.333333333333      0.333333333333      0.266666666667
     -0.266666666667      0.333333333333      0.266666666667
     -0.400000000000      0.400000000000      0.266666666667
     -0.333333333333      0.400000000000      0.266666666667
     -0.266666666667      0.400000000000      0.266666666667
     -0.466666666667      0.466666666667      0.266666666667
     -0.400000000000      0.466666666667      0.266666666667
     -0.333333333333      0.466666666667      0.266666666667
     -0.266666666667      0.466666666667      0.266666666667
     -0.466666666667     -0.466666666667      0.266666666667
     -0.400000000000     -0.466666666667      0.266666666667
     -0.333333333333     -0.466666666667      0.266666666667
     -0.266666666667     -0.466666666667      0.266666666667
     -0.400000000000     -0.400000000000      0.266666666667
     -0.333333333333     -0.400000000000      0.266666666667
     -0.266666666667     -0.400000000000      0.266666666667
     -0.333333333333     -0.333333333333      0.266666666667
     -0.266666666667     -0.333333333333      0.266666666667
     -0.266666666667     -0.266666666667      0.266666666667
     -0.333333333333      0.333333333333      0.333333333333
     -0.400000000000      0.400000000000      0.333333333333
     -0.333333333333      0.400000000000      0.333333333333
     -0.466666666667      0.466666666667      0.333333333333
     -0.400000000000      0.466666666667      0.333333333333
     -0.333333333333      0.466666666667      0.333333333333
     -0.466666666667     -0.466666666667      0.333333333333
     -0.400000000000     -0.466666666667      0.333333333333
     -0.333333333333     -0.466666666667      0.333333333333
     -0.400000000000     -0.400000000000      0.333333333333
     -0.333333333333     -0.400000000000      0.333333333333
     -0.333333333333     -0.333333333333      0.333333333333
     -0.400000000000      0.400000000000      0.400000000000
     -0.466666666667      0.466666666667      0.400000000000
     -0.400000000000      0.466666666667      0.400000000000
     -0.466666666667     -0.466666666667      0.400000000000
     -0.400000000000     -0.466666666667      0.400000000000
     -0.400000000000     -0.400000000000      0.400000000000
     -0.466666666667      0.466666666667      0.466666666667
     -0.466666666667     -0.466666666667      0.466666666667
     -0.066666666667     -0.000000000000     -0.000000000000
      0.066666666667     -0.000000000000     -0.066666666667
     -0.066666666667      0.000000000000      0.066666666667
      0.000000000000      0.066666666667     -0.066666666667
     -0.000000000000     -0.066666666667      0.066666666667
     -0.000000000000      0.066666666667     -0.000000000000
      0.000000000000     -0.066666666667      0.000000000000
     -0.133333333333     -0.000000000000     -0.000000000000
      0.133333333333     -0.000000000000     -0.133333333333
     -0.133333333333      0.000000000000      0.133333333333
      0.000000000000      0.133333333333     -0.133333333333
     -0.000000000000     -0.133333333333      0.133333333333
     -0.000000000000      0.133333333333     -0.000000000000
      0.000000000000     -0.133333333333      0.000000000000
     -0.200000000000     -0.000000000000     -0.000000000000
      0.200000000000     -0.000000000000     -0.200000000000
     -0.200000000000      0.000000000000      0.200000000000
      0.000000000000      0.200000000000     -0.200000000000
     -0.000000000000     -0.200000000000      0.200000000000
     -0.000000000000      0.200000000000     -0.000000000000
      0.000000000000     -0.200000000000      0.000000000000
     -0.266666666667     -0.000000000000     -0.000000000000
      0.266666666667     -0.000000000000     -0.266666666667
     -0.266666666667      0.000000000000      0.266666666667
      0.000000000000      0.266666666667     -0.266666666667
     -0.000000000000     -0.266666666667      0.266666666667
     -0.000000000000      0.266666666667     -0.000000000000
      0.000000000000     -0.266666666667      0.000000000000
     -0.333333333333     -0.000000000000     -0.000000000000
      0.333333333333     -0.000000000000     -0.333333333333
     -0.333333333333      0.000000000000      0.333333333333
      0.000000000000      0.333333333333     -0.333333333333
     -0.000000000000     -0.333333333333      0.333333333333
     -0.000000000000      0.333333333333     -0.000000000000
      0.000000000000     -0.333333333333      0.000000000000
     -0.400000000000     -0.000000000000     -0.000000000000
      0.400000000000     -0.000000000000     -0.400000000000
     -0.400000000000      0.000000000000      0.400000000000
      0.000000000000      0.400000000000     -0.400000000000
     -0.000000000000     -0.400000000000      0.400000000000
     -0.000000000000      0.400000000000     -0.000000000000
      0.000000000000     -0.400000000000      0.000000000000
     -0.466666666667     -0.000000000000     -0.000000000000
      0.466666666667     -0.000000000000     -0.466666666667
     -0.466666666667      0.000000000000      0.466666666667
      0.000000000000      0.466666666667     -0.466666666667
     -0.000000000000     -0.466666666667      0.466666666667
     -0.000000000000      0.466666666667     -0.000000000000
      0.000000000000     -0.466666666667      0.000000000000
     -0.066666666667     -0.066666666667     -0.000000000000
      0.133333333333     -0.000000000000     -0.066666666667
     -0.133333333333      0.000000000000      0.066666666667
      0.066666666667      0.066666666667     -0.133333333333
     -0.066666666667     -0.066666666667      0.133333333333
     -0.000000000000      0.133333333333     -0.066666666667
      0.000000000000     -0.133333333333      0.066666666667
     -0.133333333333     -0.066666666667     -0.000000000000
      0.200000000000     -0.000000000000     -0.133333333333
     -0.200000000000      0.000000000000      0.133333333333
      0.066666666667      0.133333333333     -0.200000000000
     -0.066666666667     -0.133333333333      0.200000000000
     -0.000000000000      0.200000000000     -0.066666666667
      0.000000000000     -0.200000000000      0.066666666667
      0.000000000000     -0.200000000000      0.133333333333
     -0.000000000000      0.200000000000     -0.133333333333
     -0.133333333333     -0.066666666667      0.200000000000
      0.133333333333      0.066666666667     -0.200000000000
     -0.200000000000      0.000000000000      0.066666666667
      0.200000000000     -0.000000000000     -0.066666666667
     -0.066666666667     -0.133333333333     -0.000000000000
      0.066666666667      0.133333333333      0.000000000000
     -0.200000000000     -0.066666666667     -0.000000000000
      0.266666666667     -0.000000000000     -0.200000000000
     -0.266666666667      0.000000000000      0.200000000000
      0.066666666667      0.200000000000     -0.266666666667
     -0.066666666667     -0.200000000000      0.266666666667
     -0.000000000000      0.266666666667     -0.066666666667
      0.000000000000     -0.266666666667      0.066666666667
      0.000000000000     -0.266666666667      0.200000000000
     -0.000000000000      0.266666666667     -0.200000000000
     -0.200000000000     -0.066666666667      0.266666666667
      0.200000000000      0.066666666667     -0.266666666667
     -0.266666666667      0.000000000000      0.066666666667
      0.266666666667     -0.000000000000     -0.066666666667
     -0.066666666667     -0.200000000000     -0.000000000000
      0.066666666667      0.200000000000      0.000000000000
     -0.266666666667     -0.066666666667     -0.000000000000
      0.333333333333     -0.000000000000     -0.266666666667
     -0.333333333333      0.000000000000      0.266666666667
      0.066666666667      0.266666666667     -0.333333333333
     -0.066666666667     -0.266666666667      0.333333333333
     -0.000000000000      0.333333333333     -0.066666666667
      0.000000000000     -0.333333333333      0.066666666667
      0.000000000000     -0.333333333333      0.266666666667
     -0.000000000000      0.333333333333     -0.266666666667
     -0.266666666667     -0.066666666667      0.333333333333
      0.266666666667      0.066666666667     -0.333333333333
     -0.333333333333      0.000000000000      0.066666666667
      0.333333333333     -0.000000000000     -0.066666666667
     -0.066666666667     -0.266666666667     -0.000000000000
      0.066666666667      0.266666666667      0.000000000000
     -0.333333333333     -0.066666666667     -0.000000000000
      0.400000000000     -0.000000000000     -0.333333333333
     -0.400000000000      0.000000000000      0.333333333333
      0.066666666667      0.333333333333     -0.400000000000
     -0.066666666667     -0.333333333333      0.400000000000
     -0.000000000000      0.400000000000     -0.066666666667
      0.000000000000     -0.400000000000      0.066666666667
      0.000000000000     -0.400000000000      0.333333333333
     -0.000000000000      0.400000000000     -0.333333333333
     -0.333333333333     -0.066666666667      0.400000000000
      0.333333333333      0.066666666667     -0.400000000000
     -0.400000000000      0.000000000000      0.066666666667
      0.400000000000     -0.000000000000     -0.066666666667
     -0.066666666667     -0.333333333333     -0.000000000000
      0.066666666667      0.333333333333      0.000000000000
     -0.400000000000     -0.066666666667     -0.000000000000
      0.466666666667     -0.000000000000     -0.400000000000
     -0.466666666667      0.000000000000      0.400000000000
      0.066666666667      0.400000000000     -0.466666666667
     -0.066666666667     -0.400000000000      0.466666666667
     -0.000000000000      0.466666666667     -0.066666666667
      0.000000000000     -0.466666666667      0.066666666667
      0.000000000000     -0.466666666667      0.400000000000
     -0.000000000000      0.466666666667     -0.400000000000
     -0.400000000000     -0.066666666667      0.466666666667
      0.400000000000      0.066666666667     -0.466666666667
     -0.466666666667      0.000000000000      0.066666666667
      0.466666666667     -0.000000000000     -0.066666666667
     -0.066666666667     -0.400000000000     -0.000000000000
      0.066666666667      0.400000000000      0.000000000000
     -0.466666666667     -0.066666666667     -0.000000000000
      0.533333333333     -0.000000000000     -0.466666666667
     -0.533333333333      0.000000000000      0.466666666667
      0.066666666667      0.466666666667     -0.533333333333
     -0.066666666667     -0.466666666667      0.533333333333
     -0.000000000000      0.533333333333     -0.066666666667
      0.000000000000     -0.533333333333      0.066666666667
      0.000000000000     -0.533333333333      0.466666666667
     -0.000000000000      0.533333333333     -0.466666666667
     -0.466666666667     -0.066666666667      0.533333333333
      0.466666666667      0.066666666667     -0.533333333333
     -0.533333333333      0.000000000000      0.066666666667
      0.533333333333     -0.000000000000     -0.066666666667
     -0.066666666667     -0.466666666667     -0.000000000000
      0.066666666667      0.466666666667      0.000000000000
      0.466666666667     -0.066666666667     -0.000000000000
     -0.400000000000     -0.000000000000      0.466666666667
      0.400000000000      0.000000000000     -0.466666666667
      0.066666666667     -0.466666666667      0.400000000000
     -0.066666666667      0.466666666667     -0.400000000000
     -0.000000000000     -0.400000000000     -0.066666666667
      0.000000000000      0.400000000000      0.066666666667
      0.000000000000      0.400000000000     -0.466666666667
     -0.000000000000     -0.400000000000      0.466666666667
      0.466666666667     -0.066666666667     -0.400000000000
     -0.466666666667      0.066666666667      0.400000000000
      0.400000000000      0.000000000000      0.066666666667
     -0.400000000000     -0.000000000000     -0.066666666667
     -0.066666666667      0.466666666667     -0.000000000000
      0.066666666667     -0.466666666667      0.000000000000
      0.400000000000     -0.066666666667     -0.000000000000
     -0.333333333333     -0.000000000000      0.400000000000
      0.333333333333      0.000000000000     -0.400000000000
      0.066666666667     -0.400000000000      0.333333333333
     -0.066666666667      0.400000000000     -0.333333333333
     -0.000000000000     -0.333333333333     -0.066666666667
      0.000000000000      0.333333333333      0.066666666667
      0.000000000000      0.333333333333     -0.400000000000
     -0.000000000000     -0.333333333333      0.400000000000
      0.400000000000     -0.066666666667     -0.333333333333
     -0.400000000000      0.066666666667      0.333333333333
      0.333333333333      0.000000000000      0.066666666667