SYSTEM = NdNiO2-pdd
ISMEAR =  2
SIGMA =  0.005
EDIFF = 1E-10
ALGO = Exact ; NELM=1
LOPTICS = .TRUE.
LWAVE = .TRUE.
ENCUT=450
NBANDS =512
LMAXMIX=6
LORBIT=11

