SYSTEM = NdNiO3-pdd
ISMEAR =  2
VCUTOFF=800
ENCUT=500
SIGMA =  0.005
EDIFF = 1E-8
NBANDS =360
LWAVE = .FALSE.
NCSHMEM=1 

ALGO = CRPAR
NOMEGA=24
NTAUPAR=2
NOMEGAPAR = 8

LWRITE_WANPROJ = TRUE

PRECFOCK = Fast           # fast mode for FFTs
NTARGET_STATES = 1   # exclude wannier states 1 - 3 in screening
NCRPA_BANDS = 20 
