NdNiO2
1.0
        3.9199979305         0.0000000000         0.0000000000
        0.0000000000         3.9199979305         0.0000000000
        0.0000000000         0.0000000000         3.3099980354
   Nd   Ni    O
    1    1    2
Direct
     0.000000000         0.000000000         0.000000000
     0.500000000         0.500000000         0.500000000
    -0.000000000         0.500000000         0.500000000
     0.500000000         0.000000000         0.500000000
