 num_wann  = 16

!!! Disentanglement parameters !!!
dis_win_min = -3.5
dis_win_max = 14.0
dis_froz_min = -3.5
dis_froz_max = 7.9

!dis_mix_ratio    = 0.5

!!! Iterations &c. !!!
 iprint                = 1
 num_iter              = 200000
 num_print_cycles      = 100
 conv_window           = 50
 conv_tol              = 1e-10
 dis_num_iter          = 100000
!dis_conv_window       = 3
dis_conv_tol          = 1e-14

!!! Post-processing options !!!
! write_proj             = .true.
! write_xyz              = .true.
 translate_home_cell    = .true.
 write_hr               = .true.
!fermi_surface_plot     = .true.
!dos                    = .true.
!dos_project            =
!dos_kmesh              = 50 50 1
!dos_energy_min         = -10
!dos_energy_max         = +10

!!! Band structure !!!
!!! needs `kpoint_path' block
! bands_plot             = .true.
! bands_num_points       = 50
!bands_plot_format      = gnuplot xmgrace
!bands_plot_project     = 1-3
!bands_plot_mode        = s-k | cut [Slater-Koster | truncate Hamiltonian]
 
begin unit_cell_cart
     3.9199979     0.0000000     0.0000000
     0.0000000     3.9199979     0.0000000
     0.0000000     0.0000000     3.3099980
end unit_cell_cart

begin atoms_cart
Nd       0.0000000     0.0000000     0.0000000
Ni       1.9599990     1.9599990     1.6549990
O        0.0000000     1.9599990     1.6549990
O        1.9599990     0.0000000     1.6549990
end atoms_cart

!!! BZ-Path for band structure !!!
!bands_plot = T
!begin kpoint_path
!  G   0.00000   0.00000   0.00000    X   0.50000   0.00000   0.00000
!  X   0.50000   0.00000   0.00000    M   0.50000  -0.50000   0.00000
!  M   0.50000  -0.50000   0.00000    G   0.00000   0.00000   0.00000
!  G   0.00000   0.00000   0.00000    Z   0.00000   0.00000   0.50000
!  Z   0.00000   0.00000   0.50000    R   0.50000   0.00000   0.50000
!  R   0.50000   0.00000   0.50000    A   0.50000  -0.50000   0.50000
!  A   0.50000  -0.50000   0.50000    Z   0.00000   0.00000   0.50000
!end kpoint_path
 
!!!! Dummy `projections' block for guiding centres !!!
guiding_centres = T
begin projections
Ni:l=2,mr=4
Ni:l=2,mr=1,2,3,5
Nd:l=2,mr=1,5
Nd:l=2,mr=2,3,4
O:p
end projections



mp_grid =     9     9     9

begin kpoints
      0.000000000000      0.000000000000      0.000000000000
      0.111111111111      0.000000000000      0.000000000000
      0.222222222222      0.000000000000      0.000000000000
      0.333333333333      0.000000000000      0.000000000000
      0.444444444444      0.000000000000      0.000000000000
      0.111111111111      0.111111111111      0.000000000000
      0.222222222222      0.111111111111      0.000000000000
      0.333333333333      0.111111111111      0.000000000000
      0.444444444444      0.111111111111      0.000000000000
      0.222222222222      0.222222222222      0.000000000000
      0.333333333333      0.222222222222      0.000000000000
      0.444444444444      0.222222222222      0.000000000000
      0.333333333333      0.333333333333      0.000000000000
      0.444444444444      0.333333333333      0.000000000000
      0.444444444444      0.444444444444      0.000000000000
      0.000000000000      0.000000000000      0.111111111111
      0.111111111111      0.000000000000      0.111111111111
      0.222222222222      0.000000000000      0.111111111111
      0.333333333333      0.000000000000      0.111111111111
      0.444444444444      0.000000000000      0.111111111111
      0.111111111111      0.111111111111      0.111111111111
      0.222222222222      0.111111111111      0.111111111111
      0.333333333333      0.111111111111      0.111111111111
      0.444444444444      0.111111111111      0.111111111111
      0.222222222222      0.222222222222      0.111111111111
      0.333333333333      0.222222222222      0.111111111111
      0.444444444444      0.222222222222      0.111111111111
      0.333333333333      0.333333333333      0.111111111111
      0.444444444444      0.333333333333      0.111111111111
      0.444444444444      0.444444444444      0.111111111111
      0.000000000000      0.000000000000      0.222222222222
      0.111111111111      0.000000000000      0.222222222222
      0.222222222222      0.000000000000      0.222222222222
      0.333333333333      0.000000000000      0.222222222222
      0.444444444444      0.000000000000      0.222222222222
      0.111111111111      0.111111111111      0.222222222222
      0.222222222222      0.111111111111      0.222222222222
      0.333333333333      0.111111111111      0.222222222222
      0.444444444444      0.111111111111      0.222222222222
      0.222222222222      0.222222222222      0.222222222222
      0.333333333333      0.222222222222      0.222222222222
      0.444444444444      0.222222222222      0.222222222222
      0.333333333333      0.333333333333      0.222222222222
      0.444444444444      0.333333333333      0.222222222222
      0.444444444444      0.444444444444      0.222222222222
      0.000000000000      0.000000000000      0.333333333333
      0.111111111111      0.000000000000      0.333333333333
      0.222222222222      0.000000000000      0.333333333333
      0.333333333333      0.000000000000      0.333333333333
      0.444444444444      0.000000000000      0.333333333333
      0.111111111111      0.111111111111      0.333333333333
      0.222222222222      0.111111111111      0.333333333333
      0.333333333333      0.111111111111      0.333333333333
      0.444444444444      0.111111111111      0.333333333333
      0.222222222222      0.222222222222      0.333333333333
      0.333333333333      0.222222222222      0.333333333333
      0.444444444444      0.222222222222      0.333333333333
      0.333333333333      0.333333333333      0.333333333333
      0.444444444444      0.333333333333      0.333333333333
      0.444444444444      0.444444444444      0.333333333333
      0.000000000000      0.000000000000      0.444444444444
      0.111111111111      0.000000000000      0.444444444444
      0.222222222222      0.000000000000      0.444444444444
      0.333333333333      0.000000000000      0.444444444444
      0.444444444444      0.000000000000      0.444444444444
      0.111111111111      0.111111111111      0.444444444444
      0.222222222222      0.111111111111      0.444444444444
      0.333333333333      0.111111111111      0.444444444444
      0.444444444444      0.111111111111      0.444444444444
      0.222222222222      0.222222222222      0.444444444444
      0.333333333333      0.222222222222      0.444444444444
      0.444444444444      0.222222222222      0.444444444444
      0.333333333333      0.333333333333      0.444444444444
      0.444444444444      0.333333333333      0.444444444444
      0.444444444444      0.444444444444      0.444444444444
     -0.111111111111      0.000000000000      0.000000000000
      0.000000000000      0.111111111111      0.000000000000
      0.000000000000     -0.111111111111      0.000000000000
     -0.222222222222      0.000000000000      0.000000000000
      0.000000000000      0.222222222222      0.000000000000
      0.000000000000     -0.222222222222      0.000000000000
     -0.333333333333      0.000000000000      0.000000000000
      0.000000000000      0.333333333333      0.000000000000
      0.000000000000     -0.333333333333      0.000000000000
     -0.444444444444      0.000000000000      0.000000000000
      0.000000000000      0.444444444444      0.000000000000
      0.000000000000     -0.444444444444      0.000000000000
     -0.111111111111     -0.111111111111      0.000000000000
     -0.111111111111      0.111111111111      0.000000000000
      0.111111111111     -0.111111111111      0.000000000000
     -0.222222222222     -0.111111111111      0.000000000000
     -0.111111111111      0.222222222222      0.000000000000
      0.111111111111     -0.222222222222      0.000000000000
     -0.222222222222      0.111111111111      0.000000000000
      0.222222222222     -0.111111111111      0.000000000000
      0.111111111111      0.222222222222      0.000000000000
     -0.111111111111     -0.222222222222      0.000000000000
     -0.333333333333     -0.111111111111      0.000000000000
     -0.111111111111      0.333333333333      0.000000000000
      0.111111111111     -0.333333333333      0.000000000000
     -0.333333333333      0.111111111111      0.000000000000
      0.333333333333     -0.111111111111      0.000000000000
      0.111111111111      0.333333333333      0.000000000000
     -0.111111111111     -0.333333333333      0.000000000000
     -0.444444444444     -0.111111111111      0.000000000000
     -0.111111111111      0.444444444444      0.000000000000
      0.111111111111     -0.444444444444      0.000000000000
     -0.444444444444      0.111111111111      0.000000000000
      0.444444444444     -0.111111111111      0.000000000000
      0.111111111111      0.444444444444      0.000000000000
     -0.111111111111     -0.444444444444      0.000000000000
     -0.222222222222     -0.222222222222      0.000000000000
     -0.222222222222      0.222222222222      0.000000000000
      0.222222222222     -0.222222222222      0.000000000000
     -0.333333333333     -0.222222222222      0.000000000000
     -0.222222222222      0.333333333333      0.000000000000
      0.222222222222     -0.333333333333      0.000000000000
     -0.333333333333      0.222222222222      0.000000000000
      0.333333333333     -0.222222222222      0.000000000000
      0.222222222222      0.333333333333      0.000000000000
     -0.222222222222     -0.333333333333      0.000000000000
     -0.444444444444     -0.222222222222      0.000000000000
     -0.222222222222      0.444444444444      0.000000000000
      0.222222222222     -0.444444444444      0.000000000000
     -0.444444444444      0.222222222222      0.000000000000
      0.444444444444     -0.222222222222      0.000000000000
      0.222222222222      0.444444444444      0.000000000000
     -0.222222222222     -0.444444444444      0.000000000000
     -0.333333333333     -0.333333333333      0.000000000000
     -0.333333333333      0.333333333333      0.000000000000
      0.333333333333     -0.333333333333      0.000000000000
     -0.444444444444     -0.333333333333      0.000000000000
     -0.333333333333      0.444444444444      0.000000000000
      0.333333333333     -0.444444444444      0.000000000000
     -0.444444444444      0.333333333333      0.000000000000
      0.444444444444     -0.333333333333      0.000000000000
      0.333333333333      0.444444444444      0.000000000000
     -0.333333333333     -0.444444444444      0.000000000000
     -0.444444444444     -0.444444444444      0.000000000000
     -0.444444444444      0.444444444444      0.000000000000
      0.444444444444     -0.444444444444      0.000000000000
      0.000000000000      0.000000000000     -0.111111111111
     -0.111111111111      0.000000000000     -0.111111111111
      0.000000000000      0.111111111111      0.111111111111
      0.000000000000     -0.111111111111     -0.111111111111
     -0.111111111111      0.000000000000      0.111111111111
      0.111111111111      0.000000000000     -0.111111111111
      0.000000000000     -0.111111111111      0.111111111111
      0.000000000000      0.111111111111     -0.111111111111
     -0.222222222222      0.000000000000     -0.111111111111
      0.000000000000      0.222222222222      0.111111111111
      0.000000000000     -0.222222222222     -0.111111111111
     -0.222222222222      0.000000000000      0.111111111111
      0.222222222222      0.000000000000     -0.111111111111
      0.000000000000     -0.222222222222      0.111111111111
      0.000000000000      0.222222222222     -0.111111111111
     -0.333333333333      0.000000000000     -0.111111111111
      0.000000000000      0.333333333333      0.111111111111
      0.000000000000     -0.333333333333     -0.111111111111
     -0.333333333333      0.000000000000      0.111111111111
      0.333333333333      0.000000000000     -0.111111111111
      0.000000000000     -0.333333333333      0.111111111111
      0.000000000000      0.333333333333     -0.111111111111
     -0.444444444444      0.000000000000     -0.111111111111
      0.000000000000      0.444444444444      0.111111111111
      0.000000000000     -0.444444444444     -0.111111111111
     -0.444444444444      0.000000000000      0.111111111111
      0.444444444444      0.000000000000     -0.111111111111
      0.000000000000     -0.444444444444      0.111111111111
      0.000000000000      0.444444444444     -0.111111111111
     -0.111111111111     -0.111111111111     -0.111111111111
     -0.111111111111      0.111111111111      0.111111111111
      0.111111111111     -0.111111111111     -0.111111111111
     -0.111111111111     -0.111111111111      0.111111111111
      0.111111111111      0.111111111111     -0.111111111111
      0.111111111111     -0.111111111111      0.111111111111
     -0.111111111111      0.111111111111     -0.111111111111
     -0.222222222222     -0.111111111111     -0.111111111111
     -0.111111111111      0.222222222222      0.111111111111
      0.111111111111     -0.222222222222     -0.111111111111
     -0.222222222222     -0.111111111111      0.111111111111
      0.222222222222      0.111111111111     -0.111111111111
      0.111111111111     -0.222222222222      0.111111111111
     -0.111111111111      0.222222222222     -0.111111111111
     -0.222222222222      0.111111111111     -0.111111111111
      0.222222222222     -0.111111111111      0.111111111111
      0.111111111111      0.222222222222     -0.111111111111
     -0.111111111111     -0.222222222222      0.111111111111
      0.222222222222     -0.111111111111     -0.111111111111
     -0.222222222222      0.111111111111      0.111111111111
     -0.111111111111     -0.222222222222     -0.111111111111
      0.111111111111      0.222222222222      0.111111111111
     -0.333333333333     -0.111111111111     -0.111111111111
     -0.111111111111      0.333333333333      0.111111111111
      0.111111111111     -0.333333333333     -0.111111111111
     -0.333333333333     -0.111111111111      0.111111111111
      0.333333333333      0.111111111111     -0.111111111111
      0.111111111111     -0.333333333333      0.111111111111
     -0.111111111111      0.333333333333     -0.111111111111
     -0.333333333333      0.111111111111     -0.111111111111
      0.333333333333     -0.111111111111      0.111111111111
      0.111111111111      0.333333333333     -0.111111111111
     -0.111111111111     -0.333333333333      0.111111111111
      0.333333333333     -0.111111111111     -0.111111111111
     -0.333333333333      0.111111111111      0.111111111111
     -0.111111111111     -0.333333333333     -0.111111111111
      0.111111111111      0.333333333333      0.111111111111
     -0.444444444444     -0.111111111111     -0.111111111111
     -0.111111111111      0.444444444444      0.111111111111
      0.111111111111     -0.444444444444     -0.111111111111
     -0.444444444444     -0.111111111111      0.111111111111
      0.444444444444      0.111111111111     -0.111111111111
      0.111111111111     -0.444444444444      0.111111111111
     -0.111111111111      0.444444444444     -0.111111111111
     -0.444444444444      0.111111111111     -0.111111111111
      0.444444444444     -0.111111111111      0.111111111111
      0.111111111111      0.444444444444     -0.111111111111
     -0.111111111111     -0.444444444444      0.111111111111
      0.444444444444     -0.111111111111     -0.111111111111
     -0.444444444444      0.111111111111      0.111111111111
     -0.111111111111     -0.444444444444     -0.111111111111
      0.111111111111      0.444444444444      0.111111111111
     -0.222222222222     -0.222222222222     -0.111111111111
     -0.222222222222      0.222222222222      0.111111111111
      0.222222222222     -0.222222222222     -0.111111111111
     -0.222222222222     -0.222222222222      0.111111111111
      0.222222222222      0.222222222222     -0.111111111111
      0.222222222222     -0.222222222222      0.111111111111
     -0.222222222222      0.222222222222     -0.111111111111
     -0.333333333333     -0.222222222222     -0.111111111111
     -0.222222222222      0.333333333333      0.111111111111
      0.222222222222     -0.333333333333     -0.111111111111
     -0.333333333333     -0.222222222222      0.111111111111
      0.333333333333      0.222222222222     -0.111111111111
      0.222222222222     -0.333333333333      0.111111111111
     -0.222222222222      0.333333333333     -0.111111111111
     -0.333333333333      0.222222222222     -0.111111111111
      0.333333333333     -0.222222222222      0.111111111111
      0.222222222222      0.333333333333     -0.111111111111
     -0.222222222222     -0.333333333333      0.111111111111
      0.333333333333     -0.222222222222     -0.111111111111
     -0.333333333333      0.222222222222      0.111111111111
     -0.222222222222     -0.333333333333     -0.111111111111
      0.222222222222      0.333333333333      0.111111111111
     -0.444444444444     -0.222222222222     -0.111111111111
     -0.222222222222      0.444444444444      0.111111111111
      0.222222222222     -0.444444444444     -0.111111111111
     -0.444444444444     -0.222222222222      0.111111111111
      0.444444444444      0.222222222222     -0.111111111111
      0.222222222222     -0.444444444444      0.111111111111
     -0.222222222222      0.444444444444     -0.111111111111
     -0.444444444444      0.222222222222     -0.111111111111
      0.444444444444     -0.222222222222      0.111111111111
      0.222222222222      0.444444444444     -0.111111111111
     -0.222222222222     -0.444444444444      0.111111111111
      0.444444444444     -0.222222222222     -0.111111111111
     -0.444444444444      0.222222222222      0.111111111111
     -0.222222222222     -0.444444444444     -0.111111111111
      0.222222222222      0.444444444444      0.111111111111
     -0.333333333333     -0.333333333333     -0.111111111111
     -0.333333333333      0.333333333333      0.111111111111
      0.333333333333     -0.333333333333     -0.111111111111
     -0.333333333333     -0.333333333333      0.111111111111
      0.333333333333      0.333333333333     -0.111111111111
      0.333333333333     -0.333333333333      0.111111111111
     -0.333333333333      0.333333333333     -0.111111111111
     -0.444444444444     -0.333333333333     -0.111111111111
     -0.333333333333      0.444444444444      0.111111111111
      0.333333333333     -0.444444444444     -0.111111111111
     -0.444444444444     -0.333333333333      0.111111111111
      0.444444444444      0.333333333333     -0.111111111111
      0.333333333333     -0.444444444444      0.111111111111
     -0.333333333333      0.444444444444     -0.111111111111
     -0.444444444444      0.333333333333     -0.111111111111
      0.444444444444     -0.333333333333      0.111111111111
      0.333333333333      0.444444444444     -0.111111111111
     -0.333333333333     -0.444444444444      0.111111111111
      0.444444444444     -0.333333333333     -0.111111111111
     -0.444444444444      0.333333333333      0.111111111111
     -0.333333333333     -0.444444444444     -0.111111111111
      0.333333333333      0.444444444444      0.111111111111
     -0.444444444444     -0.444444444444     -0.111111111111
     -0.444444444444      0.444444444444      0.111111111111
      0.444444444444     -0.444444444444     -0.111111111111
     -0.444444444444     -0.444444444444      0.111111111111
      0.444444444444      0.444444444444     -0.111111111111
      0.444444444444     -0.444444444444      0.111111111111
     -0.444444444444      0.444444444444     -0.111111111111
      0.000000000000      0.000000000000     -0.222222222222
     -0.111111111111      0.000000000000     -0.222222222222
      0.000000000000      0.111111111111      0.222222222222
      0.000000000000     -0.111111111111     -0.222222222222
     -0.111111111111      0.000000000000      0.222222222222
      0.111111111111      0.000000000000     -0.222222222222
      0.000000000000     -0.111111111111      0.222222222222
      0.000000000000      0.111111111111     -0.222222222222
     -0.222222222222      0.000000000000     -0.222222222222
      0.000000000000      0.222222222222      0.222222222222
      0.000000000000     -0.222222222222     -0.222222222222
     -0.222222222222      0.000000000000      0.222222222222
      0.222222222222      0.000000000000     -0.222222222222
      0.000000000000     -0.222222222222      0.222222222222
      0.000000000000      0.222222222222     -0.222222222222
     -0.333333333333      0.000000000000     -0.222222222222
      0.000000000000      0.333333333333      0.222222222222
      0.000000000000     -0.333333333333     -0.222222222222
     -0.333333333333      0.000000000000      0.222222222222
      0.333333333333      0.000000000000     -0.222222222222
      0.000000000000     -0.333333333333      0.222222222222
      0.000000000000      0.333333333333     -0.222222222222
     -0.444444444444      0.000000000000     -0.222222222222
      0.000000000000      0.444444444444      0.222222222222
      0.000000000000     -0.444444444444     -0.222222222222
     -0.444444444444      0.000000000000      0.222222222222
      0.444444444444      0.000000000000     -0.222222222222
      0.000000000000     -0.444444444444      0.222222222222
      0.000000000000      0.444444444444     -0.222222222222
     -0.111111111111     -0.111111111111     -0.222222222222
     -0.111111111111      0.111111111111      0.222222222222
      0.111111111111     -0.111111111111     -0.222222222222
     -0.111111111111     -0.111111111111      0.222222222222
      0.111111111111      0.111111111111     -0.222222222222
      0.111111111111     -0.111111111111      0.222222222222
     -0.111111111111      0.111111111111     -0.222222222222
     -0.222222222222     -0.111111111111     -0.222222222222
     -0.111111111111      0.222222222222      0.222222222222
      0.111111111111     -0.222222222222     -0.222222222222
     -0.222222222222     -0.111111111111      0.222222222222
      0.222222222222      0.111111111111     -0.222222222222
      0.111111111111     -0.222222222222      0.222222222222
     -0.111111111111      0.222222222222     -0.222222222222
     -0.222222222222      0.111111111111     -0.222222222222
      0.222222222222     -0.111111111111      0.222222222222
      0.111111111111      0.222222222222     -0.222222222222
     -0.111111111111     -0.222222222222      0.222222222222
      0.222222222222     -0.111111111111     -0.222222222222
     -0.222222222222      0.111111111111      0.222222222222
     -0.111111111111     -0.222222222222     -0.222222222222
      0.111111111111      0.222222222222      0.222222222222
     -0.333333333333     -0.111111111111     -0.222222222222
     -0.111111111111      0.333333333333      0.222222222222
      0.111111111111     -0.333333333333     -0.222222222222
     -0.333333333333     -0.111111111111      0.222222222222
      0.333333333333      0.111111111111     -0.222222222222
      0.111111111111     -0.333333333333      0.222222222222
     -0.111111111111      0.333333333333     -0.222222222222
     -0.333333333333      0.111111111111     -0.222222222222
      0.333333333333     -0.111111111111      0.222222222222
      0.111111111111      0.333333333333     -0.222222222222
     -0.111111111111     -0.333333333333      0.222222222222
      0.333333333333     -0.111111111111     -0.222222222222
     -0.333333333333      0.111111111111      0.222222222222
     -0.111111111111     -0.333333333333     -0.222222222222
      0.111111111111      0.333333333333      0.222222222222
     -0.444444444444     -0.111111111111     -0.222222222222
     -0.111111111111      0.444444444444      0.222222222222
      0.111111111111     -0.444444444444     -0.222222222222
     -0.444444444444     -0.111111111111      0.222222222222
      0.444444444444      0.111111111111     -0.222222222222
      0.111111111111     -0.444444444444      0.222222222222
     -0.111111111111      0.444444444444     -0.222222222222
     -0.444444444444      0.111111111111     -0.222222222222
      0.444444444444     -0.111111111111      0.222222222222
      0.111111111111      0.444444444444     -0.222222222222
     -0.111111111111     -0.444444444444      0.222222222222
      0.444444444444     -0.111111111111     -0.222222222222
     -0.444444444444      0.111111111111      0.222222222222
     -0.111111111111     -0.444444444444     -0.222222222222
      0.111111111111      0.444444444444      0.222222222222
     -0.222222222222     -0.222222222222     -0.222222222222
     -0.222222222222      0.222222222222      0.222222222222
      0.222222222222     -0.222222222222     -0.222222222222
     -0.222222222222     -0.222222222222      0.222222222222
      0.222222222222      0.222222222222     -0.222222222222
      0.222222222222     -0.222222222222      0.222222222222
     -0.222222222222      0.222222222222     -0.222222222222
     -0.333333333333     -0.222222222222     -0.222222222222
     -0.222222222222      0.333333333333      0.222222222222
      0.222222222222     -0.333333333333     -0.222222222222
     -0.333333333333     -0.222222222222      0.222222222222
      0.333333333333      0.222222222222     -0.222222222222
      0.222222222222     -0.333333333333      0.222222222222
     -0.222222222222      0.333333333333     -0.222222222222
     -0.333333333333      0.222222222222     -0.222222222222
      0.333333333333     -0.222222222222      0.222222222222
      0.222222222222      0.333333333333     -0.222222222222
     -0.222222222222     -0.333333333333      0.222222222222
      0.333333333333     -0.222222222222     -0.222222222222
     -0.333333333333      0.222222222222      0.222222222222
     -0.222222222222     -0.333333333333     -0.222222222222
      0.222222222222      0.333333333333      0.222222222222
     -0.444444444444     -0.222222222222     -0.222222222222
     -0.222222222222      0.444444444444      0.222222222222
      0.222222222222     -0.444444444444     -0.222222222222
     -0.444444444444     -0.222222222222      0.222222222222
      0.444444444444      0.222222222222     -0.222222222222
      0.222222222222     -0.444444444444      0.222222222222
     -0.222222222222      0.444444444444     -0.222222222222
     -0.444444444444      0.222222222222     -0.222222222222
      0.444444444444     -0.222222222222      0.222222222222
      0.222222222222      0.444444444444     -0.222222222222
     -0.222222222222     -0.444444444444      0.222222222222
      0.444444444444     -0.222222222222     -0.222222222222
     -0.444444444444      0.222222222222      0.222222222222
     -0.222222222222     -0.444444444444     -0.222222222222
      0.222222222222      0.444444444444      0.222222222222
     -0.333333333333     -0.333333333333     -0.222222222222
     -0.333333333333      0.333333333333      0.222222222222
      0.333333333333     -0.333333333333     -0.222222222222
     -0.333333333333     -0.333333333333      0.222222222222
      0.333333333333      0.333333333333     -0.222222222222
      0.333333333333     -0.333333333333      0.222222222222
     -0.333333333333      0.333333333333     -0.222222222222
     -0.444444444444     -0.333333333333     -0.222222222222
     -0.333333333333      0.444444444444      0.222222222222
      0.333333333333     -0.444444444444     -0.222222222222
     -0.444444444444     -0.333333333333      0.222222222222
      0.444444444444      0.333333333333     -0.222222222222
      0.333333333333     -0.444444444444      0.222222222222
     -0.333333333333      0.444444444444     -0.222222222222
     -0.444444444444      0.333333333333     -0.222222222222
      0.444444444444     -0.333333333333      0.222222222222
      0.333333333333      0.444444444444     -0.222222222222
     -0.333333333333     -0.444444444444      0.222222222222
      0.444444444444     -0.333333333333     -0.222222222222
     -0.444444444444      0.333333333333      0.222222222222
     -0.333333333333     -0.444444444444     -0.222222222222
      0.333333333333      0.444444444444      0.222222222222
     -0.444444444444     -0.444444444444     -0.222222222222
     -0.444444444444      0.444444444444      0.222222222222
      0.444444444444     -0.444444444444     -0.222222222222
     -0.444444444444     -0.444444444444      0.222222222222
      0.444444444444      0.444444444444     -0.222222222222
      0.444444444444     -0.444444444444      0.222222222222
     -0.444444444444      0.444444444444     -0.222222222222
      0.000000000000      0.000000000000     -0.333333333333
     -0.111111111111      0.000000000000     -0.333333333333
      0.000000000000      0.111111111111      0.333333333333
      0.000000000000     -0.111111111111     -0.333333333333
     -0.111111111111      0.000000000000      0.333333333333
      0.111111111111      0.000000000000     -0.333333333333
      0.000000000000     -0.111111111111      0.333333333333
      0.000000000000      0.111111111111     -0.333333333333
     -0.222222222222      0.000000000000     -0.333333333333
      0.000000000000      0.222222222222      0.333333333333
      0.000000000000     -0.222222222222     -0.333333333333
     -0.222222222222      0.000000000000      0.333333333333
      0.222222222222      0.000000000000     -0.333333333333
      0.000000000000     -0.222222222222      0.333333333333
      0.000000000000      0.222222222222     -0.333333333333
     -0.333333333333      0.000000000000     -0.333333333333
      0.000000000000      0.333333333333      0.333333333333
      0.000000000000     -0.333333333333     -0.333333333333
     -0.333333333333      0.000000000000      0.333333333333
      0.333333333333      0.000000000000     -0.333333333333